(set-info :smt-lib-version 2.6)
(set-logic UF)
(set-info :source |
Generated by: Andrew Reynolds
Generated on: 2017-04-28
Generator: Sledgehammer, converted to v2.6 by CVC4
Application: Verfication goals in Isabelle
Target solver: CVC4, Z3
Publications: "A Decision Procedure for (Co)Datatypes" by Andrew Reynolds and Jasmin Blanchette, CADE 2015.
|)
(set-info :license "https://creativecommons.org/licenses/by/4.0/")
(set-info :category "industrial")
(set-info :status unsat)


(declare-sort A$ 0)
(declare-sort Nat$ 0)
(declare-sort A_a_fun$ 0)
(declare-sort A_bool_fun$ 0)
(declare-sort Nat_nat_fun$ 0)
(declare-sort Nat_bool_fun$ 0)
(declare-sort Enat_bool_fun$ 0)
(declare-sort Nat_nat_bool_fun_fun$ 0)
(declare-sort Enat_enat_bool_fun_fun$ 0)
(declare-sort A_llist$ 0)
(declare-fun lNil$ () A_llist$)
(declare-fun lhd$ (A_llist$) A$)
(declare-fun ltl$ (A_llist$) A_llist$)
(declare-fun lCons$ (A$ A_llist$) A_llist$)
(declare-sort Nat_option$ 0)
(declare-sort Enat$ 0)
(declare-fun none$ () Nat_option$)
(declare-fun the$ (Nat_option$) Nat$)
(declare-fun some$ (Nat$) Nat_option$)
(declare-fun rep_enat$ (Enat$) Nat_option$)
(declare-fun abs_enat$ (Nat_option$) Enat$)
(declare-fun m$ () Nat$)
(declare-fun n$ () Enat$)
(declare-fun xs$ () A_llist$)
(declare-fun one$ () Nat$)
(declare-fun enat$ (Nat$) Enat$)
(declare-fun less$ (Enat$) Enat_bool_fun$)
(declare-fun lmap$ (A_a_fun$ A_llist$) A_llist$)
(declare-fun lnth$ (A_llist$ Nat$) A$)
(declare-fun one$a () Enat$)
(declare-fun plus$ (Nat$) Nat_nat_fun$)
(declare-fun ldrop$ (Enat$ A_llist$) A_llist$)
(declare-fun less$a (Nat$) Nat_bool_fun$)
(declare-fun ltake$ (Enat$ A_llist$) A_llist$)
(declare-fun minus$ (Enat$ Enat$) Enat$)
(declare-fun plus$a (Enat$ Enat$) Enat$)
(declare-fun ldropn$ (Nat$ A_llist$) A_llist$)
(declare-fun minus$a (Nat$) Nat_nat_fun$)
(declare-fun fun_app$ (Nat_nat_fun$ Nat$) Nat$)
(declare-fun lappend$ (A_llist$ A_llist$) A_llist$)
(declare-fun less_eq$ (Enat$) Enat_bool_fun$)
(declare-fun llength$ (A_llist$) Enat$)
(declare-fun fun_app$a (Enat_bool_fun$ Enat$) Bool)
(declare-fun fun_app$b (Nat_bool_fun$ Nat$) Bool)
(declare-fun fun_app$c (A_a_fun$ A$) A$)
(declare-fun fun_app$d (Nat_nat_bool_fun_fun$ Nat$) Nat_bool_fun$)
(declare-fun fun_app$e (A_bool_fun$ A$) Bool)
(declare-fun fun_app$f (Enat_enat_bool_fun_fun$ Enat$) Enat_bool_fun$)
(declare-fun less_eq$a (Nat$) Nat_bool_fun$)
(declare-fun the_enat$ (Enat$) Nat$)
(declare-fun pred_llist$ (A_bool_fun$ A_llist$) Bool)
(declare-fun gen_llength$ (Nat$ A_llist$) Enat$)
(assert (not (= (lnth$ (ldrop$ n$ xs$) m$) (lnth$ xs$ (fun_app$ (plus$ m$) (the_enat$ n$))))))
(assert (fun_app$a (less$ (plus$a n$ (enat$ m$))) (llength$ xs$)))
(assert (forall ((?v0 Enat$) (?v1 Enat$) (?v2 A_llist$)) (= (ldrop$ ?v0 (ldrop$ ?v1 ?v2)) (ldrop$ (plus$a ?v0 ?v1) ?v2)) ))
(assert (forall ((?v0 Nat$) (?v1 Enat$) (?v2 Enat$)) (= (fun_app$a (less$ (plus$a (enat$ ?v0) ?v1)) (plus$a (enat$ ?v0) ?v2)) (fun_app$a (less$ ?v1) ?v2)) ))
(assert (forall ((?v0 Nat$) (?v1 Nat$)) (! (= (plus$a (enat$ ?v0) (enat$ ?v1)) (enat$ (fun_app$ (plus$ ?v0) ?v1))) :pattern ((plus$a (enat$ ?v0) (enat$ ?v1))))))
(assert (forall ((?v0 Nat$) (?v1 Enat$) (?v2 Enat$)) (= (= (plus$a (enat$ ?v0) ?v1) (plus$a (enat$ ?v0) ?v2)) (= ?v1 ?v2)) ))
(assert (forall ((?v0 Enat$) (?v1 Nat$) (?v2 Enat$)) (= (= (plus$a ?v0 (enat$ ?v1)) (plus$a ?v2 (enat$ ?v1))) (= ?v0 ?v2)) ))
(assert (forall ((?v0 Nat$) (?v1 Nat$) (?v2 Nat$)) (= (fun_app$b (less$a (fun_app$ (plus$ ?v0) ?v1)) (fun_app$ (plus$ ?v2) ?v1)) (fun_app$b (less$a ?v0) ?v2)) ))
(assert (forall ((?v0 Nat$) (?v1 Nat$) (?v2 Nat$)) (= (fun_app$b (less$a (fun_app$ (plus$ ?v0) ?v1)) (fun_app$ (plus$ ?v0) ?v2)) (fun_app$b (less$a ?v1) ?v2)) ))
(assert (forall ((?v0 Nat$) (?v1 Enat$) (?v2 Nat$)) (=> (fun_app$a (less$ (enat$ ?v0)) ?v1) (fun_app$a (less$ (enat$ (fun_app$ (plus$ ?v2) ?v0))) (plus$a (enat$ ?v2) ?v1))) ))
(assert (forall ((?v0 Nat$) (?v1 Nat$)) (= (= (enat$ ?v0) (enat$ ?v1)) (= ?v0 ?v1)) ))
(assert (forall ((?v0 Nat$)) (! (= (the_enat$ (enat$ ?v0)) ?v0) :pattern ((enat$ ?v0)))))
(assert (forall ((?v0 Nat$) (?v1 Nat$) (?v2 Nat$)) (= (= (fun_app$ (plus$ ?v0) ?v1) (fun_app$ (plus$ ?v2) ?v1)) (= ?v0 ?v2)) ))
(assert (forall ((?v0 Nat$) (?v1 Nat$) (?v2 Nat$)) (= (= (fun_app$ (plus$ ?v0) ?v1) (fun_app$ (plus$ ?v0) ?v2)) (= ?v1 ?v2)) ))
(assert (forall ((?v0 Nat$) (?v1 A_llist$)) (! (= (gen_llength$ ?v0 ?v1) (plus$a (enat$ ?v0) (llength$ ?v1))) :pattern ((gen_llength$ ?v0 ?v1)))))
(assert (forall ((?v0 Nat$) (?v1 Nat$)) (! (= (fun_app$a (less$ (enat$ ?v0)) (enat$ ?v1)) (fun_app$b (less$a ?v0) ?v1)) :pattern ((fun_app$a (less$ (enat$ ?v0)) (enat$ ?v1))))))
(assert (forall ((?v0 Enat$) (?v1 Nat$)) (=> (and (fun_app$a (less$ ?v0) (enat$ ?v1)) (forall ((?v2 Nat$)) (=> (and (= ?v0 (enat$ ?v2)) (fun_app$b (less$a ?v2) ?v1)) false) )) false) ))
(assert (forall ((?v0 Nat$) (?v1 Nat$) (?v2 Enat$)) (=> (fun_app$b (less$a ?v0) ?v1) (fun_app$a (less$ (enat$ ?v0)) (plus$a (enat$ ?v1) ?v2))) ))
(assert (forall ((?v0 Nat$) (?v1 Nat$) (?v2 Nat$) (?v3 Nat$)) (=> (and (= ?v0 ?v1) (= ?v2 ?v3)) (= (fun_app$ (plus$ ?v0) ?v2) (fun_app$ (plus$ ?v1) ?v3))) ))
(assert (forall ((?v0 Enat$) (?v1 Enat$) (?v2 Enat$) (?v3 Enat$)) (=> (and (= ?v0 ?v1) (= ?v2 ?v3)) (= (plus$a ?v0 ?v2) (plus$a ?v1 ?v3))) ))
(assert (forall ((?v0 Nat$) (?v1 Nat$) (?v2 Nat$)) (=> (= (fun_app$ (plus$ ?v0) ?v1) (fun_app$ (plus$ ?v0) ?v2)) (= ?v1 ?v2)) ))
(assert (forall ((?v0 Nat$) (?v1 Nat$) (?v2 Nat$)) (=> (= (fun_app$ (plus$ ?v0) ?v1) (fun_app$ (plus$ ?v2) ?v1)) (= ?v0 ?v2)) ))
(assert (forall ((?v0 Nat$) (?v1 Nat$)) (= (fun_app$ (plus$ ?v0) ?v1) (fun_app$ (plus$ ?v1) ?v0)) ))
(assert (forall ((?v0 Enat$) (?v1 Enat$)) (= (plus$a ?v0 ?v1) (plus$a ?v1 ?v0)) ))
(assert (forall ((?v0 Nat$) (?v1 Nat$) (?v2 Nat$)) (= (fun_app$ (plus$ ?v0) (fun_app$ (plus$ ?v1) ?v2)) (fun_app$ (plus$ ?v1) (fun_app$ (plus$ ?v0) ?v2))) ))
(assert (forall ((?v0 Enat$) (?v1 Enat$) (?v2 Enat$)) (= (plus$a ?v0 (plus$a ?v1 ?v2)) (plus$a ?v1 (plus$a ?v0 ?v2))) ))
(assert (forall ((?v0 Nat$) (?v1 Nat$) (?v2 Nat$)) (= (fun_app$ (plus$ (fun_app$ (plus$ ?v0) ?v1)) ?v2) (fun_app$ (plus$ ?v0) (fun_app$ (plus$ ?v1) ?v2))) ))
(assert (forall ((?v0 Enat$) (?v1 Enat$) (?v2 Enat$)) (= (plus$a (plus$a ?v0 ?v1) ?v2) (plus$a ?v0 (plus$a ?v1 ?v2))) ))
(assert (forall ((?v0 Nat$) (?v1 Nat$) (?v2 Nat$)) (= (fun_app$ (plus$ (fun_app$ (plus$ ?v0) ?v1)) ?v2) (fun_app$ (plus$ ?v0) (fun_app$ (plus$ ?v1) ?v2))) ))
(assert (forall ((?v0 Enat$) (?v1 Enat$) (?v2 Enat$)) (= (plus$a (plus$a ?v0 ?v1) ?v2) (plus$a ?v0 (plus$a ?v1 ?v2))) ))
(assert (forall ((?v0 Enat_bool_fun$) (?v1 Enat$)) (=> (forall ((?v2 Enat$)) (=> (forall ((?v3 Enat$)) (=> (fun_app$a (less$ ?v3) ?v2) (fun_app$a ?v0 ?v3)) ) (fun_app$a ?v0 ?v2)) ) (fun_app$a ?v0 ?v1)) ))
(assert (forall ((?v0 Nat$) (?v1 Nat$) (?v2 Nat$)) (=> (fun_app$b (less$a ?v0) ?v1) (fun_app$b (less$a (fun_app$ (plus$ ?v2) ?v0)) (fun_app$ (plus$ ?v2) ?v1))) ))
(assert (forall ((?v0 Nat$) (?v1 Nat$) (?v2 Nat$)) (=> (fun_app$b (less$a ?v0) ?v1) (fun_app$b (less$a (fun_app$ (plus$ ?v0) ?v2)) (fun_app$ (plus$ ?v1) ?v2))) ))
(assert (forall ((?v0 Nat$) (?v1 Nat$) (?v2 Nat$) (?v3 Nat$)) (=> (and (fun_app$b (less$a ?v0) ?v1) (fun_app$b (less$a ?v2) ?v3)) (fun_app$b (less$a (fun_app$ (plus$ ?v0) ?v2)) (fun_app$ (plus$ ?v1) ?v3))) ))
(assert (forall ((?v0 Nat$) (?v1 Nat$) (?v2 Nat$)) (=> (fun_app$b (less$a (fun_app$ (plus$ ?v0) ?v1)) (fun_app$ (plus$ ?v0) ?v2)) (fun_app$b (less$a ?v1) ?v2)) ))
(assert (forall ((?v0 Nat$) (?v1 Nat$) (?v2 Nat$)) (=> (fun_app$b (less$a (fun_app$ (plus$ ?v0) ?v1)) (fun_app$ (plus$ ?v2) ?v1)) (fun_app$b (less$a ?v0) ?v2)) ))
(assert (forall ((?v0 Nat$) (?v1 Nat$) (?v2 Nat$) (?v3 Nat$)) (=> (and (fun_app$b (less$a ?v0) ?v1) (fun_app$b (less$a ?v2) ?v3)) (fun_app$b (less$a (fun_app$ (plus$ ?v0) ?v2)) (fun_app$ (plus$ ?v1) ?v3))) ))
(assert (forall ((?v0 Nat$) (?v1 Nat$) (?v2 Nat$) (?v3 Nat$)) (=> (and (fun_app$b (less$a ?v0) ?v1) (= ?v2 ?v3)) (fun_app$b (less$a (fun_app$ (plus$ ?v0) ?v2)) (fun_app$ (plus$ ?v1) ?v3))) ))
(assert (forall ((?v0 Nat$) (?v1 Nat$) (?v2 Nat$) (?v3 Nat$)) (=> (and (= ?v0 ?v1) (fun_app$b (less$a ?v2) ?v3)) (fun_app$b (less$a (fun_app$ (plus$ ?v0) ?v2)) (fun_app$ (plus$ ?v1) ?v3))) ))
(assert (forall ((?v0 Enat$) (?v1 Nat$)) (=> (fun_app$a (less$ ?v0) (enat$ ?v1)) (exists ((?v2 Nat$)) (= ?v0 (enat$ ?v2)) )) ))
(assert (forall ((?v0 Nat$) (?v1 Nat$) (?v2 Nat$)) (= (fun_app$b (less$a (fun_app$ (plus$ ?v0) ?v1)) (fun_app$ (plus$ ?v0) ?v2)) (fun_app$b (less$a ?v1) ?v2)) ))
(assert (forall ((?v0 Nat$) (?v1 Nat$) (?v2 A_llist$)) (=> (fun_app$a (less$ (enat$ (fun_app$ (plus$ ?v0) ?v1))) (llength$ ?v2)) (= (lnth$ (ldropn$ ?v0 ?v2) ?v1) (lnth$ ?v2 (fun_app$ (plus$ ?v1) ?v0)))) ))
(assert (forall ((?v0 Enat$) (?v1 A_llist$)) (=> (fun_app$a (less$ ?v0) (llength$ ?v1)) (= (lhd$ (ldrop$ ?v0 ?v1)) (lnth$ ?v1 (the_enat$ ?v0)))) ))
(assert (forall ((?v0 Nat$) (?v1 A_llist$) (?v2 A_a_fun$)) (=> (fun_app$a (less$ (enat$ ?v0)) (llength$ ?v1)) (= (lnth$ (lmap$ ?v2 ?v1) ?v0) (fun_app$c ?v2 (lnth$ ?v1 ?v0)))) ))
(assert (forall ((?v0 Nat$) (?v1 Nat$)) (not (fun_app$b (less$a (fun_app$ (plus$ ?v0) ?v1)) ?v0)) ))
(assert (forall ((?v0 Nat$) (?v1 Nat$)) (not (fun_app$b (less$a (fun_app$ (plus$ ?v0) ?v1)) ?v1)) ))
(assert (forall ((?v0 Nat$) (?v1 Nat$) (?v2 Nat$)) (=> (fun_app$b (less$a ?v0) ?v1) (fun_app$b (less$a ?v0) (fun_app$ (plus$ ?v1) ?v2))) ))
(assert (forall ((?v0 Nat$) (?v1 Nat$) (?v2 Nat$)) (=> (fun_app$b (less$a ?v0) ?v1) (fun_app$b (less$a ?v0) (fun_app$ (plus$ ?v2) ?v1))) ))
(assert (forall ((?v0 Nat$) (?v1 Nat$) (?v2 Nat$)) (=> (fun_app$b (less$a ?v0) ?v1) (fun_app$b (less$a (fun_app$ (plus$ ?v0) ?v2)) (fun_app$ (plus$ ?v1) ?v2))) ))
(assert (forall ((?v0 Nat$) (?v1 Nat$) (?v2 A_llist$)) (= (ldropn$ ?v0 (ldropn$ ?v1 ?v2)) (ldropn$ (fun_app$ (plus$ ?v0) ?v1) ?v2)) ))
(assert (forall ((?v0 A_a_fun$) (?v1 A_llist$)) (= (llength$ (lmap$ ?v0 ?v1)) (llength$ ?v1)) ))
(assert (forall ((?v0 Enat$) (?v1 A_a_fun$) (?v2 A_llist$)) (= (ldrop$ ?v0 (lmap$ ?v1 ?v2)) (lmap$ ?v1 (ldrop$ ?v0 ?v2))) ))
(assert (forall ((?v0 Nat$) (?v1 A_a_fun$) (?v2 A_llist$)) (= (ldropn$ ?v0 (lmap$ ?v1 ?v2)) (lmap$ ?v1 (ldropn$ ?v0 ?v2))) ))
(assert (forall ((?v0 Nat$) (?v1 Nat$)) (= (not (= ?v0 ?v1)) (or (fun_app$b (less$a ?v0) ?v1) (fun_app$b (less$a ?v1) ?v0))) ))
(assert (forall ((?v0 Nat$) (?v1 Nat$) (?v2 Nat_nat_bool_fun_fun$)) (=> (and (=> (fun_app$b (less$a ?v0) ?v1) (fun_app$b (fun_app$d ?v2 ?v1) ?v0)) (and (=> (= ?v0 ?v1) (fun_app$b (fun_app$d ?v2 ?v1) ?v0)) (=> (fun_app$b (less$a ?v1) ?v0) (fun_app$b (fun_app$d ?v2 ?v1) ?v0)))) (fun_app$b (fun_app$d ?v2 ?v1) ?v0)) ))
(assert (forall ((?v0 Nat_bool_fun$) (?v1 Nat$)) (=> (forall ((?v2 Nat$)) (=> (not (fun_app$b ?v0 ?v2)) (exists ((?v3 Nat$)) (and (fun_app$b (less$a ?v3) ?v2) (not (fun_app$b ?v0 ?v3))) )) ) (fun_app$b ?v0 ?v1)) ))
(assert (forall ((?v0 Nat_bool_fun$) (?v1 Nat$)) (=> (forall ((?v2 Nat$)) (=> (forall ((?v3 Nat$)) (=> (fun_app$b (less$a ?v3) ?v2) (fun_app$b ?v0 ?v3)) ) (fun_app$b ?v0 ?v2)) ) (fun_app$b ?v0 ?v1)) ))
(assert (forall ((?v0 Nat$) (?v1 Nat$)) (=> (fun_app$b (less$a ?v0) ?v1) (not (= ?v0 ?v1))) ))
(assert (forall ((?v0 Nat$) (?v1 Nat$)) (=> (fun_app$b (less$a ?v0) ?v1) (not (= ?v1 ?v0))) ))
(assert (forall ((?v0 Nat$)) (=> (fun_app$b (less$a ?v0) ?v0) false) ))
(assert (forall ((?v0 Nat$) (?v1 Nat$)) (=> (and (not (= ?v0 ?v1)) (and (=> (fun_app$b (less$a ?v0) ?v1) false) (=> (fun_app$b (less$a ?v1) ?v0) false))) false) ))
(assert (forall ((?v0 Nat$)) (not (fun_app$b (less$a ?v0) ?v0)) ))
(assert (forall ((?v0 Nat$) (?v1 A_llist$)) (=> (fun_app$a (less$ (enat$ ?v0)) (llength$ ?v1)) (= (lhd$ (ldropn$ ?v0 ?v1)) (lnth$ ?v1 ?v0))) ))
(assert (forall ((?v0 Nat$) (?v1 A_llist$)) (! (= (ldrop$ (enat$ ?v0) ?v1) (ldropn$ ?v0 ?v1)) :pattern ((ldrop$ (enat$ ?v0) ?v1)))))
(assert (forall ((?v0 Nat$) (?v1 Nat$) (?v2 Nat$)) (= (= (fun_app$ (plus$ ?v0) ?v1) (fun_app$ (plus$ ?v2) ?v1)) (= ?v0 ?v2)) ))
(assert (forall ((?v0 Nat$) (?v1 Nat$) (?v2 Nat$)) (= (= (fun_app$ (plus$ ?v0) ?v1) (fun_app$ (plus$ ?v0) ?v2)) (= ?v1 ?v2)) ))
(assert (forall ((?v0 Nat$) (?v1 Nat$) (?v2 Nat$)) (=> (fun_app$b (less$a (fun_app$ (plus$ ?v0) ?v1)) ?v2) (fun_app$b (less$a ?v0) ?v2)) ))
(assert (forall ((?v0 Nat$) (?v1 Nat$) (?v2 Nat$) (?v3 Nat$)) (=> (and (fun_app$b (less$a ?v0) ?v1) (= (fun_app$ (plus$ ?v2) ?v1) (fun_app$ (plus$ ?v0) ?v3))) (fun_app$b (less$a ?v2) ?v3)) ))
(assert (forall ((?v0 Nat$) (?v1 Nat$) (?v2 Nat$) (?v3 Nat$)) (=> (and (fun_app$b (less$a ?v0) ?v1) (fun_app$b (less$a ?v2) ?v3)) (fun_app$b (less$a (fun_app$ (plus$ ?v0) ?v2)) (fun_app$ (plus$ ?v1) ?v3))) ))
(assert (forall ((?v0 Nat$) (?v1 A_llist$) (?v2 A$) (?v3 A_llist$)) (=> (= (ldropn$ ?v0 ?v1) (lCons$ ?v2 ?v3)) (fun_app$a (less$ (enat$ ?v0)) (llength$ ?v1))) ))
(assert (forall ((?v0 Nat$) (?v1 A_llist$)) (= (llength$ (ldropn$ ?v0 ?v1)) (minus$ (llength$ ?v1) (enat$ ?v0))) ))
(assert (forall ((?v0 Enat$) (?v1 Nat$) (?v2 A_llist$)) (= (ltake$ ?v0 (ldropn$ ?v1 ?v2)) (ldropn$ ?v1 (ltake$ (plus$a ?v0 (enat$ ?v1)) ?v2))) ))
(assert (forall ((?v0 Enat$) (?v1 A_llist$) (?v2 A$) (?v3 A_llist$)) (=> (= (ldrop$ ?v0 ?v1) (lCons$ ?v2 ?v3)) (fun_app$a (less$ ?v0) (llength$ ?v1))) ))
(assert (forall ((?v0 A$) (?v1 A_llist$) (?v2 A$) (?v3 A_llist$)) (= (= (lCons$ ?v0 ?v1) (lCons$ ?v2 ?v3)) (and (= ?v0 ?v2) (= ?v1 ?v3))) ))
(assert (forall ((?v0 Nat$) (?v1 Nat$)) (= (fun_app$ (minus$a (fun_app$ (plus$ ?v0) ?v1)) ?v0) ?v1) ))
(assert (forall ((?v0 Nat$) (?v1 Nat$)) (= (fun_app$ (minus$a (fun_app$ (plus$ ?v0) ?v1)) ?v1) ?v0) ))
(assert (forall ((?v0 Nat$) (?v1 Nat$) (?v2 Nat$)) (= (fun_app$ (minus$a (fun_app$ (plus$ ?v0) ?v1)) (fun_app$ (plus$ ?v0) ?v2)) (fun_app$ (minus$a ?v1) ?v2)) ))
(assert (forall ((?v0 Nat$) (?v1 Nat$) (?v2 Nat$)) (= (fun_app$ (minus$a (fun_app$ (plus$ ?v0) ?v1)) (fun_app$ (plus$ ?v2) ?v1)) (fun_app$ (minus$a ?v0) ?v2)) ))
(assert (forall ((?v0 Enat$) (?v1 A_a_fun$) (?v2 A_llist$)) (= (ltake$ ?v0 (lmap$ ?v1 ?v2)) (lmap$ ?v1 (ltake$ ?v0 ?v2))) ))
(assert (forall ((?v0 Enat$) (?v1 Enat$) (?v2 A_llist$)) (= (ldrop$ ?v0 (ltake$ ?v1 ?v2)) (ltake$ (minus$ ?v1 ?v0) (ldrop$ ?v0 ?v2))) ))
(assert (forall ((?v0 Nat$) (?v1 Nat$) (?v2 Nat$)) (= (fun_app$ (minus$a (fun_app$ (minus$a ?v0) ?v1)) ?v2) (fun_app$ (minus$a (fun_app$ (minus$a ?v0) ?v2)) ?v1)) ))
(assert (forall ((?v0 Nat$) (?v1 Enat$) (?v2 A_llist$)) (= (ldropn$ ?v0 (ltake$ ?v1 ?v2)) (ltake$ (minus$ ?v1 (enat$ ?v0)) (ldropn$ ?v0 ?v2))) ))
(assert (forall ((?v0 Nat$) (?v1 Nat$) (?v2 Nat$)) (=> (= (fun_app$ (plus$ ?v0) ?v1) ?v2) (= ?v0 (fun_app$ (minus$a ?v2) ?v1))) ))
(assert (forall ((?v0 Nat$) (?v1 Nat$) (?v2 Nat$)) (= (fun_app$ (minus$a (fun_app$ (minus$a ?v0) ?v1)) ?v2) (fun_app$ (minus$a ?v0) (fun_app$ (plus$ ?v1) ?v2))) ))
(assert (forall ((?v0 A$) (?v1 A_llist$)) (! (= (lhd$ (lCons$ ?v0 ?v1)) ?v0) :pattern ((lCons$ ?v0 ?v1)))))
(assert (forall ((?v0 A_a_fun$) (?v1 A$) (?v2 A_llist$)) (! (= (lmap$ ?v0 (lCons$ ?v1 ?v2)) (lCons$ (fun_app$c ?v0 ?v1) (lmap$ ?v0 ?v2))) :pattern ((lmap$ ?v0 (lCons$ ?v1 ?v2))))))
(assert (forall ((?v0 A_a_fun$) (?v1 A_llist$) (?v2 A$) (?v3 A_llist$)) (= (= (lmap$ ?v0 ?v1) (lCons$ ?v2 ?v3)) (exists ((?v4 A$) (?v5 A_llist$)) (and (= ?v1 (lCons$ ?v4 ?v5)) (and (= ?v2 (fun_app$c ?v0 ?v4)) (= ?v3 (lmap$ ?v0 ?v5)))) )) ))
(assert (forall ((?v0 Enat$) (?v1 Enat$) (?v2 A_llist$)) (= (ltake$ ?v0 (ldrop$ ?v1 ?v2)) (ldrop$ ?v1 (ltake$ (plus$a ?v0 ?v1) ?v2))) ))
(assert (forall ((?v0 Nat$) (?v1 Nat$)) (=> (not (fun_app$b (less$a ?v0) ?v1)) (= (fun_app$ (plus$ ?v1) (fun_app$ (minus$a ?v0) ?v1)) ?v0)) ))
(assert (forall ((?v0 Enat$) (?v1 A_llist$) (?v2 A_llist$)) (= (ldrop$ ?v0 (lappend$ ?v1 ?v2)) (ite (fun_app$a (less$ ?v0) (llength$ ?v1)) (lappend$ (ldrop$ ?v0 ?v1) ?v2) (ldrop$ (minus$ ?v0 (llength$ ?v1)) ?v2))) ))
(assert (forall ((?v0 A_bool_fun$) (?v1 A$) (?v2 A_llist$)) (! (= (pred_llist$ ?v0 (lCons$ ?v1 ?v2)) (and (fun_app$e ?v0 ?v1) (pred_llist$ ?v0 ?v2))) :pattern ((pred_llist$ ?v0 (lCons$ ?v1 ?v2))))))
(assert (forall ((?v0 Nat$) (?v1 A$) (?v2 A_llist$)) (! (= (gen_llength$ ?v0 (lCons$ ?v1 ?v2)) (gen_llength$ (fun_app$ (plus$ ?v0) one$) ?v2)) :pattern ((gen_llength$ ?v0 (lCons$ ?v1 ?v2))))))
(assert (forall ((?v0 Nat$) (?v1 Nat$) (?v2 Nat$)) (= (fun_app$ (minus$a (fun_app$ (minus$a ?v0) ?v1)) ?v2) (fun_app$ (minus$a ?v0) (fun_app$ (plus$ ?v1) ?v2))) ))
(assert (forall ((?v0 A$) (?v1 A_llist$) (?v2 A_llist$)) (! (= (lappend$ (lCons$ ?v0 ?v1) ?v2) (lCons$ ?v0 (lappend$ ?v1 ?v2))) :pattern ((lappend$ (lCons$ ?v0 ?v1) ?v2)))))
(assert (forall ((?v0 Nat$) (?v1 Nat$)) (! (= (minus$ (enat$ ?v0) (enat$ ?v1)) (enat$ (fun_app$ (minus$a ?v0) ?v1))) :pattern ((minus$ (enat$ ?v0) (enat$ ?v1))))))
(assert (forall ((?v0 A_llist$) (?v1 A_llist$)) (= (llength$ (lappend$ ?v0 ?v1)) (plus$a (llength$ ?v0) (llength$ ?v1))) ))
(assert (forall ((?v0 Nat$) (?v1 A_llist$)) (= (lappend$ (ltake$ (enat$ ?v0) ?v1) (ldropn$ ?v0 ?v1)) ?v1) ))
(assert (forall ((?v0 Enat$)) (= (= one$a ?v0) (= ?v0 one$a)) ))
(assert (forall ((?v0 Nat$)) (= (= one$ ?v0) (= ?v0 one$)) ))
(assert (forall ((?v0 A_llist$) (?v1 A_llist$) (?v2 A_llist$)) (= (lappend$ (lappend$ ?v0 ?v1) ?v2) (lappend$ ?v0 (lappend$ ?v1 ?v2))) ))
(assert (not (fun_app$b (less$a one$) one$)))
(assert (forall ((?v0 Nat$) (?v1 Nat$) (?v2 Nat$)) (=> (and (fun_app$b (less$a ?v0) ?v1) (fun_app$b (less$a ?v0) ?v2)) (fun_app$b (less$a (fun_app$ (minus$a ?v2) ?v1)) (fun_app$ (minus$a ?v2) ?v0))) ))
(assert (forall ((?v0 Nat$) (?v1 Nat$) (?v2 Nat$)) (=> (fun_app$b (less$a ?v0) ?v1) (fun_app$b (less$a (fun_app$ (minus$a ?v0) ?v2)) ?v1)) ))
(assert (forall ((?v0 Nat$) (?v1 Nat$) (?v2 Nat$)) (= (fun_app$ (minus$a (fun_app$ (plus$ ?v0) ?v1)) (fun_app$ (plus$ ?v2) ?v1)) (fun_app$ (minus$a ?v0) ?v2)) ))
(assert (forall ((?v0 Nat$) (?v1 Nat$) (?v2 Nat$)) (= (fun_app$ (minus$a (fun_app$ (plus$ ?v0) ?v1)) (fun_app$ (plus$ ?v0) ?v2)) (fun_app$ (minus$a ?v1) ?v2)) ))
(assert (forall ((?v0 Nat$) (?v1 Nat$)) (= (fun_app$ (minus$a (fun_app$ (plus$ ?v0) ?v1)) ?v1) ?v0) ))
(assert (forall ((?v0 Nat$) (?v1 Nat$)) (= (fun_app$ (minus$a (fun_app$ (plus$ ?v0) ?v1)) ?v0) ?v1) ))
(assert (forall ((?v0 A_a_fun$) (?v1 A_llist$) (?v2 A_llist$)) (= (lmap$ ?v0 (lappend$ ?v1 ?v2)) (lappend$ (lmap$ ?v0 ?v1) (lmap$ ?v0 ?v2))) ))
(assert (forall ((?v0 Nat$)) (fun_app$b (less$a ?v0) (fun_app$ (plus$ ?v0) one$)) ))
(assert (forall ((?v0 Nat$) (?v1 Nat$)) (=> (not (fun_app$b (less$a ?v0) ?v1)) (= (fun_app$ (plus$ ?v1) (fun_app$ (minus$a ?v0) ?v1)) ?v0)) ))
(assert (forall ((?v0 Nat$) (?v1 Nat$) (?v2 Nat$)) (= (fun_app$b (less$a ?v0) (fun_app$ (minus$a ?v1) ?v2)) (fun_app$b (less$a (fun_app$ (plus$ ?v0) ?v2)) ?v1)) ))
(assert (forall ((?v0 Enat$) (?v1 A_llist$)) (= (lappend$ (ltake$ ?v0 ?v1) (ldrop$ ?v0 ?v1)) ?v1) ))
(assert (forall ((?v0 Nat$) (?v1 A_llist$) (?v2 A_llist$)) (= (ldropn$ ?v0 (lappend$ ?v1 ?v2)) (ite (fun_app$a (less$ (enat$ ?v0)) (llength$ ?v1)) (lappend$ (ldropn$ ?v0 ?v1) ?v2) (ldropn$ (fun_app$ (minus$a ?v0) (the_enat$ (llength$ ?v1))) ?v2))) ))
(assert (forall ((?v0 Enat$) (?v1 Enat$) (?v2 A_llist$)) (= (ltake$ (plus$a ?v0 ?v1) ?v2) (lappend$ (ltake$ ?v0 ?v2) (ltake$ ?v1 (ldrop$ ?v0 ?v2)))) ))
(assert (forall ((?v0 Enat$) (?v1 A_llist$) (?v2 A_llist$)) (= (ltake$ ?v0 (lappend$ ?v1 ?v2)) (lappend$ (ltake$ ?v0 ?v1) (ltake$ (minus$ ?v0 (llength$ ?v1)) ?v2))) ))
(assert (forall ((?v0 A_llist$) (?v1 Nat$) (?v2 A_llist$)) (=> (fun_app$a (less_eq$ (llength$ ?v0)) (enat$ ?v1)) (= (ldropn$ ?v1 (lappend$ ?v0 ?v2)) (ldropn$ (fun_app$ (minus$a ?v1) (the_enat$ (llength$ ?v0))) ?v2))) ))
(assert (forall ((?v0 A_llist$) (?v1 Enat$) (?v2 A_llist$)) (=> (fun_app$a (less_eq$ (llength$ ?v0)) ?v1) (= (ltake$ ?v1 (lappend$ ?v0 ?v2)) (lappend$ ?v0 (ltake$ (minus$ ?v1 (llength$ ?v0)) ?v2)))) ))
(assert (forall ((?v0 Nat$) (?v1 Nat$) (?v2 Nat$)) (= (fun_app$b (less_eq$a (fun_app$ (plus$ ?v0) ?v1)) (fun_app$ (plus$ ?v0) ?v2)) (fun_app$b (less_eq$a ?v1) ?v2)) ))
(assert (forall ((?v0 Nat$) (?v1 Nat$) (?v2 Nat$)) (= (fun_app$b (less_eq$a (fun_app$ (plus$ ?v0) ?v1)) (fun_app$ (plus$ ?v2) ?v1)) (fun_app$b (less_eq$a ?v0) ?v2)) ))
(assert (forall ((?v0 Nat$) (?v1 Nat$)) (=> (fun_app$b (less_eq$a ?v0) ?v1) (= (fun_app$ (plus$ ?v0) (fun_app$ (minus$a ?v1) ?v0)) ?v1)) ))
(assert (forall ((?v0 Nat$) (?v1 Nat$)) (=> (fun_app$b (less_eq$a ?v0) ?v1) (= (fun_app$ (plus$ (fun_app$ (minus$a ?v1) ?v0)) ?v0) ?v1)) ))
(assert (forall ((?v0 Nat$) (?v1 Nat$) (?v2 Nat$)) (= (fun_app$ (minus$a (fun_app$ (minus$a ?v0) ?v1)) ?v2) (fun_app$ (minus$a (fun_app$ (minus$a ?v0) ?v2)) ?v1)) ))
(assert (fun_app$b (less_eq$a one$) one$))
(assert (forall ((?v0 Nat$) (?v1 Nat$)) (= (fun_app$b (less_eq$a ?v0) ?v1) (exists ((?v2 Nat$)) (= ?v1 (fun_app$ (plus$ ?v0) ?v2)) )) ))
(assert (forall ((?v0 Enat$) (?v1 Enat$) (?v2 Enat$) (?v3 Enat$)) (=> (and (= ?v0 ?v1) (fun_app$a (less_eq$ ?v2) ?v3)) (fun_app$a (less_eq$ (plus$a ?v0 ?v2)) (plus$a ?v1 ?v3))) ))
(assert (forall ((?v0 Nat$) (?v1 Nat$) (?v2 Nat$) (?v3 Nat$)) (=> (and (= ?v0 ?v1) (fun_app$b (less_eq$a ?v2) ?v3)) (fun_app$b (less_eq$a (fun_app$ (plus$ ?v0) ?v2)) (fun_app$ (plus$ ?v1) ?v3))) ))
(assert (forall ((?v0 Enat$) (?v1 Enat$) (?v2 Enat$) (?v3 Enat$)) (=> (and (fun_app$a (less_eq$ ?v0) ?v1) (= ?v2 ?v3)) (fun_app$a (less_eq$ (plus$a ?v0 ?v2)) (plus$a ?v1 ?v3))) ))
(assert (forall ((?v0 Nat$) (?v1 Nat$) (?v2 Nat$) (?v3 Nat$)) (=> (and (fun_app$b (less_eq$a ?v0) ?v1) (= ?v2 ?v3)) (fun_app$b (less_eq$a (fun_app$ (plus$ ?v0) ?v2)) (fun_app$ (plus$ ?v1) ?v3))) ))
(assert (forall ((?v0 Enat$) (?v1 Enat$) (?v2 Enat$) (?v3 Enat$)) (=> (and (fun_app$a (less_eq$ ?v0) ?v1) (fun_app$a (less_eq$ ?v2) ?v3)) (fun_app$a (less_eq$ (plus$a ?v0 ?v2)) (plus$a ?v1 ?v3))) ))
(assert (forall ((?v0 Nat$) (?v1 Nat$) (?v2 Nat$) (?v3 Nat$)) (=> (and (fun_app$b (less_eq$a ?v0) ?v1) (fun_app$b (less_eq$a ?v2) ?v3)) (fun_app$b (less_eq$a (fun_app$ (plus$ ?v0) ?v2)) (fun_app$ (plus$ ?v1) ?v3))) ))
(assert (forall ((?v0 Nat$) (?v1 Nat$) (?v2 Nat$)) (=> (fun_app$b (less_eq$a (fun_app$ (plus$ ?v0) ?v1)) (fun_app$ (plus$ ?v2) ?v1)) (fun_app$b (less_eq$a ?v0) ?v2)) ))
(assert (forall ((?v0 Nat$) (?v1 Nat$) (?v2 Nat$)) (=> (fun_app$b (less_eq$a (fun_app$ (plus$ ?v0) ?v1)) (fun_app$ (plus$ ?v0) ?v2)) (fun_app$b (less_eq$a ?v1) ?v2)) ))
(assert (forall ((?v0 Enat$) (?v1 Enat$) (?v2 Enat$) (?v3 Enat$)) (=> (and (fun_app$a (less_eq$ ?v0) ?v1) (fun_app$a (less_eq$ ?v2) ?v3)) (fun_app$a (less_eq$ (plus$a ?v0 ?v2)) (plus$a ?v1 ?v3))) ))
(assert (forall ((?v0 Nat$) (?v1 Nat$) (?v2 Nat$) (?v3 Nat$)) (=> (and (fun_app$b (less_eq$a ?v0) ?v1) (fun_app$b (less_eq$a ?v2) ?v3)) (fun_app$b (less_eq$a (fun_app$ (plus$ ?v0) ?v2)) (fun_app$ (plus$ ?v1) ?v3))) ))
(assert (forall ((?v0 Enat$) (?v1 Enat$) (?v2 Enat$)) (=> (fun_app$a (less_eq$ ?v0) ?v1) (fun_app$a (less_eq$ (plus$a ?v0 ?v2)) (plus$a ?v1 ?v2))) ))
(assert (forall ((?v0 Nat$) (?v1 Nat$) (?v2 Nat$)) (=> (fun_app$b (less_eq$a ?v0) ?v1) (fun_app$b (less_eq$a (fun_app$ (plus$ ?v0) ?v2)) (fun_app$ (plus$ ?v1) ?v2))) ))
(assert (forall ((?v0 Enat$) (?v1 Enat$) (?v2 Enat$)) (=> (fun_app$a (less_eq$ ?v0) ?v1) (fun_app$a (less_eq$ (plus$a ?v2 ?v0)) (plus$a ?v2 ?v1))) ))
(assert (forall ((?v0 Nat$) (?v1 Nat$) (?v2 Nat$)) (=> (fun_app$b (less_eq$a ?v0) ?v1) (fun_app$b (less_eq$a (fun_app$ (plus$ ?v2) ?v0)) (fun_app$ (plus$ ?v2) ?v1))) ))
(assert (forall ((?v0 Enat$) (?v1 Nat$)) (=> (fun_app$a (less_eq$ ?v0) (enat$ ?v1)) (exists ((?v2 Nat$)) (= ?v0 (enat$ ?v2)) )) ))
(assert (forall ((?v0 Enat$) (?v1 A_llist$) (?v2 A_llist$) (?v3 Enat$)) (=> (and (= (ltake$ ?v0 ?v1) (ltake$ ?v0 ?v2)) (fun_app$a (less_eq$ ?v3) ?v0)) (= (ltake$ ?v3 ?v1) (ltake$ ?v3 ?v2))) ))
(assert (forall ((?v0 Enat$) (?v1 Enat$)) (fun_app$a (less_eq$ ?v0) (plus$a ?v0 ?v1)) ))
(assert (forall ((?v0 Enat$) (?v1 Enat$)) (fun_app$a (less_eq$ ?v0) (plus$a ?v1 ?v0)) ))
(assert (forall ((?v0 Enat$) (?v1 Enat$) (?v2 Enat$)) (=> (and (fun_app$a (less_eq$ ?v0) ?v1) (fun_app$a (less_eq$ ?v0) ?v2)) (= (= (minus$ ?v1 ?v0) (minus$ ?v2 ?v0)) (= ?v1 ?v2))) ))
(assert (forall ((?v0 Enat$) (?v1 Enat$) (?v2 Enat$)) (=> (fun_app$a (less_eq$ ?v0) ?v1) (fun_app$a (less_eq$ (minus$ ?v0 ?v2)) (minus$ ?v1 ?v2))) ))
(assert (forall ((?v0 Enat_enat_bool_fun_fun$) (?v1 Enat$) (?v2 Enat$)) (=> (and (forall ((?v3 Enat$) (?v4 Enat$)) (=> (fun_app$a (less_eq$ ?v3) ?v4) (fun_app$a (fun_app$f ?v0 ?v3) ?v4)) ) (=> (fun_app$a (fun_app$f ?v0 ?v1) ?v2) (fun_app$a (fun_app$f ?v0 ?v2) ?v1))) (fun_app$a (fun_app$f ?v0 ?v2) ?v1)) ))
(assert (forall ((?v0 Nat_nat_bool_fun_fun$) (?v1 Nat$) (?v2 Nat$)) (=> (and (forall ((?v3 Nat$) (?v4 Nat$)) (=> (fun_app$b (less_eq$a ?v3) ?v4) (fun_app$b (fun_app$d ?v0 ?v3) ?v4)) ) (=> (fun_app$b (fun_app$d ?v0 ?v1) ?v2) (fun_app$b (fun_app$d ?v0 ?v2) ?v1))) (fun_app$b (fun_app$d ?v0 ?v2) ?v1)) ))
(assert (forall ((?v0 Nat$) (?v1 Nat$) (?v2 Nat$) (?v3 Nat$)) (=> (and (fun_app$b (less_eq$a ?v0) ?v1) (fun_app$b (less$a ?v2) ?v3)) (fun_app$b (less$a (fun_app$ (plus$ ?v0) ?v2)) (fun_app$ (plus$ ?v1) ?v3))) ))
(assert (forall ((?v0 Nat$) (?v1 Nat$) (?v2 Nat$) (?v3 Nat$)) (=> (and (fun_app$b (less$a ?v0) ?v1) (fun_app$b (less_eq$a ?v2) ?v3)) (fun_app$b (less$a (fun_app$ (plus$ ?v0) ?v2)) (fun_app$ (plus$ ?v1) ?v3))) ))
(assert (forall ((?v0 Nat$) (?v1 Nat$) (?v2 Nat$) (?v3 Nat$)) (=> (and (fun_app$b (less_eq$a ?v0) ?v1) (fun_app$b (less$a ?v2) ?v3)) (fun_app$b (less$a (fun_app$ (plus$ ?v0) ?v2)) (fun_app$ (plus$ ?v1) ?v3))) ))
(assert (forall ((?v0 Nat$) (?v1 Nat$) (?v2 Nat$) (?v3 Nat$)) (=> (and (fun_app$b (less$a ?v0) ?v1) (fun_app$b (less_eq$a ?v2) ?v3)) (fun_app$b (less$a (fun_app$ (plus$ ?v0) ?v2)) (fun_app$ (plus$ ?v1) ?v3))) ))
(assert (forall ((?v0 Nat$) (?v1 Nat$) (?v2 Nat$)) (=> (fun_app$b (less_eq$a ?v0) ?v1) (fun_app$b (less_eq$a ?v2) (fun_app$ (minus$a (fun_app$ (plus$ ?v1) ?v2)) ?v0))) ))
(assert (forall ((?v0 Nat$) (?v1 Nat$) (?v2 Nat$)) (=> (fun_app$b (less_eq$a ?v0) ?v1) (= (fun_app$b (less_eq$a ?v2) (fun_app$ (minus$a ?v1) ?v0)) (fun_app$b (less_eq$a (fun_app$ (plus$ ?v2) ?v0)) ?v1))) ))
(assert (forall ((?v0 Nat$) (?v1 Nat$) (?v2 Nat$)) (=> (fun_app$b (less_eq$a ?v0) ?v1) (= (fun_app$ (minus$a ?v2) (fun_app$ (minus$a ?v1) ?v0)) (fun_app$ (minus$a (fun_app$ (plus$ ?v2) ?v0)) ?v1))) ))
(assert (forall ((?v0 Nat$) (?v1 Nat$) (?v2 Nat$)) (=> (fun_app$b (less_eq$a ?v0) ?v1) (= (fun_app$ (minus$a (fun_app$ (plus$ ?v2) ?v1)) ?v0) (fun_app$ (plus$ ?v2) (fun_app$ (minus$a ?v1) ?v0)))) ))
(assert (forall ((?v0 Nat$) (?v1 Nat$) (?v2 Nat$)) (=> (fun_app$b (less_eq$a ?v0) ?v1) (= (fun_app$ (minus$a (fun_app$ (plus$ ?v1) ?v2)) ?v0) (fun_app$ (plus$ (fun_app$ (minus$a ?v1) ?v0)) ?v2))) ))
(assert (forall ((?v0 Nat$) (?v1 Nat$)) (=> (fun_app$b (less_eq$a ?v0) ?v1) (= (fun_app$ (plus$ ?v0) (fun_app$ (minus$a ?v1) ?v0)) ?v1)) ))
(assert (forall ((?v0 Nat$) (?v1 Nat$) (?v2 Nat$)) (=> (fun_app$b (less_eq$a ?v0) ?v1) (= (fun_app$ (plus$ ?v2) (fun_app$ (minus$a ?v1) ?v0)) (fun_app$ (minus$a (fun_app$ (plus$ ?v2) ?v1)) ?v0))) ))
(assert (forall ((?v0 Nat$) (?v1 Nat$)) (=> (fun_app$b (less_eq$a ?v0) ?v1) (= (fun_app$ (plus$ (fun_app$ (minus$a ?v1) ?v0)) ?v0) ?v1)) ))
(assert (forall ((?v0 Nat$) (?v1 Nat$) (?v2 Nat$)) (=> (fun_app$b (less_eq$a ?v0) ?v1) (= (fun_app$ (plus$ (fun_app$ (minus$a ?v1) ?v0)) ?v2) (fun_app$ (minus$a (fun_app$ (plus$ ?v1) ?v2)) ?v0))) ))
(assert (forall ((?v0 Nat$) (?v1 Nat$) (?v2 Nat$)) (=> (and (fun_app$b (less_eq$a ?v0) ?v1) (fun_app$b (less_eq$a ?v0) ?v1)) (= (= (fun_app$ (minus$a ?v1) ?v0) ?v2) (= ?v1 (fun_app$ (plus$ ?v2) ?v0)))) ))
(assert (forall ((?v0 Nat$) (?v1 Nat$) (?v2 Nat$)) (=> (fun_app$b (less_eq$a (fun_app$ (plus$ ?v0) ?v1)) ?v2) (fun_app$b (less_eq$a ?v0) (fun_app$ (minus$a ?v2) ?v1))) ))
(assert (forall ((?v0 Nat$) (?v1 Nat$) (?v2 Nat$) (?v3 Nat$)) (=> (and (fun_app$b (less_eq$a (fun_app$ (plus$ ?v0) ?v1)) ?v2) (and (fun_app$b (less_eq$a ?v2) (fun_app$ (plus$ ?v3) ?v1)) (and (fun_app$b (less_eq$a (fun_app$ (plus$ ?v0) ?v1)) ?v2) (fun_app$b (less_eq$a ?v2) (fun_app$ (plus$ ?v3) ?v1))))) (fun_app$b (less_eq$a (fun_app$ (minus$a ?v2) ?v1)) ?v3)) ))
(assert (= one$a (enat$ one$)))
(assert (forall ((?v0 Nat$)) (= (= one$a (enat$ ?v0)) (= ?v0 one$)) ))
(assert (forall ((?v0 Nat$)) (= (= (enat$ ?v0) one$a) (= ?v0 one$)) ))
(assert (forall ((?v0 Enat$) (?v1 Enat$)) (=> (forall ((?v2 Nat$)) (=> (fun_app$a (less$ ?v0) (enat$ ?v2)) (fun_app$a (less$ ?v1) (enat$ ?v2))) ) (fun_app$a (less_eq$ ?v1) ?v0)) ))
(assert (forall ((?v0 A_llist$) (?v1 Enat$)) (! (=> (fun_app$a (less_eq$ (llength$ ?v0)) ?v1) (= (ltake$ ?v1 ?v0) ?v0)) :pattern ((ltake$ ?v1 ?v0)))))
(assert (forall ((?v0 Nat$) (?v1 A_llist$) (?v2 Nat$)) (=> (fun_app$a (less_eq$ (enat$ ?v0)) (llength$ ?v1)) (fun_app$a (less_eq$ (enat$ (fun_app$ (minus$a ?v0) ?v2))) (llength$ (ldropn$ ?v2 ?v1)))) ))
(assert (forall ((?v0 Enat$) (?v1 A_llist$) (?v2 A_llist$)) (=> (fun_app$a (less_eq$ ?v0) (llength$ ?v1)) (= (ltake$ ?v0 (lappend$ ?v1 ?v2)) (ltake$ ?v0 ?v1))) ))
(assert (forall ((?v0 Nat$) (?v1 Nat$)) (! (= (fun_app$b (less$a ?v0) ?v1) (fun_app$b (less_eq$a (fun_app$ (plus$ ?v0) one$)) ?v1)) :pattern ((fun_app$b (less$a ?v0) ?v1)))))
(assert (forall ((?v0 Enat$)) (fun_app$a (less_eq$ ?v0) ?v0) ))
(assert (forall ((?v0 Nat$)) (fun_app$b (less_eq$a ?v0) ?v0) ))
(assert (forall ((?v0 Enat$) (?v1 Enat$)) (! (= (fun_app$a (less$ ?v0) ?v1) (and (fun_app$a (less_eq$ ?v0) ?v1) (not (= ?v1 ?v0)))) :pattern ((fun_app$a (less$ ?v0) ?v1)))))
(assert (forall ((?v0 Nat$) (?v1 Nat$)) (! (= (fun_app$b (less$a ?v0) ?v1) (and (fun_app$b (less_eq$a ?v0) ?v1) (not (= ?v1 ?v0)))) :pattern ((fun_app$b (less$a ?v0) ?v1)))))
(assert (forall ((?v0 Nat$) (?v1 Nat$) (?v2 Nat$)) (= (fun_app$b (less_eq$a (fun_app$ (plus$ ?v0) ?v1)) (fun_app$ (plus$ ?v0) ?v2)) (fun_app$b (less_eq$a ?v1) ?v2)) ))
(assert (forall ((?v0 Nat$) (?v1 Nat$)) (=> (fun_app$b (less_eq$a ?v0) ?v1) (= (fun_app$ (minus$a ?v1) (fun_app$ (minus$a ?v1) ?v0)) ?v0)) ))
(assert (forall ((?v0 Nat$) (?v1 Nat$) (?v2 Nat$)) (=> (fun_app$b (less_eq$a ?v0) ?v1) (= (fun_app$ (plus$ (fun_app$ (minus$a ?v1) ?v0)) ?v2) (fun_app$ (minus$a (fun_app$ (plus$ ?v1) ?v2)) ?v0))) ))
(assert (forall ((?v0 Nat$) (?v1 Nat$) (?v2 Nat$)) (=> (fun_app$b (less_eq$a ?v0) ?v1) (= (fun_app$ (plus$ ?v2) (fun_app$ (minus$a ?v1) ?v0)) (fun_app$ (minus$a (fun_app$ (plus$ ?v2) ?v1)) ?v0))) ))
(assert (forall ((?v0 Nat$) (?v1 Nat$)) (! (= (fun_app$a (less_eq$ (enat$ ?v0)) (enat$ ?v1)) (fun_app$b (less_eq$a ?v0) ?v1)) :pattern ((fun_app$a (less_eq$ (enat$ ?v0)) (enat$ ?v1))))))
(assert (forall ((?v0 Nat$) (?v1 Nat$)) (fun_app$b (less_eq$a (fun_app$ (minus$a ?v0) ?v1)) ?v0) ))
(assert (forall ((?v0 Nat$) (?v1 Nat$) (?v2 Nat$)) (=> (fun_app$b (less_eq$a ?v0) ?v1) (fun_app$b (less_eq$a (fun_app$ (minus$a ?v0) ?v2)) (fun_app$ (minus$a ?v1) ?v2))) ))
(assert (forall ((?v0 Nat$) (?v1 Nat$) (?v2 Nat$)) (=> (fun_app$b (less_eq$a ?v0) ?v1) (fun_app$b (less_eq$a (fun_app$ (minus$a ?v2) ?v1)) (fun_app$ (minus$a ?v2) ?v0))) ))
(assert (forall ((?v0 Nat$) (?v1 Nat$) (?v2 Nat$)) (=> (and (fun_app$b (less_eq$a ?v0) ?v1) (fun_app$b (less_eq$a ?v0) ?v2)) (= (fun_app$b (less_eq$a (fun_app$ (minus$a ?v1) ?v0)) (fun_app$ (minus$a ?v2) ?v0)) (fun_app$b (less_eq$a ?v1) ?v2))) ))
(assert (forall ((?v0 Nat$) (?v1 Nat$) (?v2 Nat$)) (=> (and (fun_app$b (less_eq$a ?v0) ?v1) (fun_app$b (less_eq$a ?v0) ?v2)) (= (fun_app$ (minus$a (fun_app$ (minus$a ?v1) ?v0)) (fun_app$ (minus$a ?v2) ?v0)) (fun_app$ (minus$a ?v1) ?v2))) ))
(assert (forall ((?v0 Nat$) (?v1 Nat$) (?v2 Nat$)) (=> (and (fun_app$b (less_eq$a ?v0) ?v1) (fun_app$b (less_eq$a ?v0) ?v2)) (= (= (fun_app$ (minus$a ?v1) ?v0) (fun_app$ (minus$a ?v2) ?v0)) (= ?v1 ?v2))) ))
(assert (forall ((?v0 Nat$) (?v1 Nat$)) (! (= (fun_app$b (less$a ?v0) ?v1) (and (fun_app$b (less_eq$a ?v0) ?v1) (not (= ?v0 ?v1)))) :pattern ((fun_app$b (less$a ?v0) ?v1)))))
(assert (forall ((?v0 Nat$) (?v1 Nat$)) (! (= (fun_app$b (less_eq$a ?v0) ?v1) (or (fun_app$b (less$a ?v0) ?v1) (= ?v0 ?v1))) :pattern ((fun_app$b (less_eq$a ?v0) ?v1)))))
(assert (forall ((?v0 Nat_nat_fun$) (?v1 Nat$) (?v2 Nat$)) (=> (and (forall ((?v3 Nat$) (?v4 Nat$)) (=> (fun_app$b (less$a ?v3) ?v4) (fun_app$b (less$a (fun_app$ ?v0 ?v3)) (fun_app$ ?v0 ?v4))) ) (fun_app$b (less_eq$a ?v1) ?v2)) (fun_app$b (less_eq$a (fun_app$ ?v0 ?v1)) (fun_app$ ?v0 ?v2))) ))
(assert (forall ((?v0 Nat$) (?v1 Nat$)) (=> (or (fun_app$b (less$a ?v0) ?v1) (= ?v0 ?v1)) (fun_app$b (less_eq$a ?v0) ?v1)) ))
(assert (forall ((?v0 Nat$) (?v1 Nat$)) (=> (fun_app$b (less$a ?v0) ?v1) (fun_app$b (less_eq$a ?v0) ?v1)) ))
(assert (forall ((?v0 Nat$) (?v1 Nat$)) (=> (and (fun_app$b (less_eq$a ?v0) ?v1) (not (= ?v0 ?v1))) (fun_app$b (less$a ?v0) ?v1)) ))
(assert (forall ((?v0 Nat$) (?v1 Nat$)) (= (fun_app$b (less_eq$a ?v0) ?v1) (exists ((?v2 Nat$)) (= ?v1 (fun_app$ (plus$ ?v0) ?v2)) )) ))
(assert (forall ((?v0 Nat$) (?v1 Nat$) (?v2 Nat$)) (=> (and (fun_app$b (less_eq$a (fun_app$ (plus$ ?v0) ?v1)) ?v2) (=> (and (fun_app$b (less_eq$a ?v0) ?v2) (fun_app$b (less_eq$a ?v1) ?v2)) false)) false) ))
(assert (forall ((?v0 Nat$) (?v1 Nat$) (?v2 Nat$)) (=> (fun_app$b (less_eq$a (fun_app$ (plus$ ?v0) ?v1)) ?v2) (fun_app$b (less_eq$a ?v1) ?v2)) ))
(assert (forall ((?v0 Nat$) (?v1 Nat$) (?v2 Nat$)) (=> (fun_app$b (less_eq$a (fun_app$ (plus$ ?v0) ?v1)) ?v2) (fun_app$b (less_eq$a ?v0) ?v2)) ))
(assert (forall ((?v0 Nat$) (?v1 Nat$) (?v2 Nat$) (?v3 Nat$)) (=> (and (fun_app$b (less_eq$a ?v0) ?v1) (fun_app$b (less_eq$a ?v2) ?v3)) (fun_app$b (less_eq$a (fun_app$ (plus$ ?v0) ?v2)) (fun_app$ (plus$ ?v1) ?v3))) ))
(assert (forall ((?v0 Nat$) (?v1 Nat$) (?v2 Nat$)) (=> (fun_app$b (less_eq$a ?v0) ?v1) (fun_app$b (less_eq$a (fun_app$ (plus$ ?v0) ?v2)) (fun_app$ (plus$ ?v1) ?v2))) ))
(assert (forall ((?v0 Nat$) (?v1 Nat$) (?v2 Nat$)) (=> (fun_app$b (less_eq$a ?v0) ?v1) (fun_app$b (less_eq$a ?v0) (fun_app$ (plus$ ?v2) ?v1))) ))
(assert (forall ((?v0 Nat$) (?v1 Nat$) (?v2 Nat$)) (=> (fun_app$b (less_eq$a ?v0) ?v1) (fun_app$b (less_eq$a ?v0) (fun_app$ (plus$ ?v1) ?v2))) ))
(assert (forall ((?v0 Nat$) (?v1 Nat$)) (=> (fun_app$b (less_eq$a ?v0) ?v1) (exists ((?v2 Nat$)) (= ?v1 (fun_app$ (plus$ ?v0) ?v2)) )) ))
(assert (forall ((?v0 Nat$) (?v1 Nat$)) (fun_app$b (less_eq$a ?v0) (fun_app$ (plus$ ?v1) ?v0)) ))
(assert (forall ((?v0 Nat$) (?v1 Nat$)) (fun_app$b (less_eq$a ?v0) (fun_app$ (plus$ ?v0) ?v1)) ))
(assert (forall ((?v0 Nat_nat_fun$) (?v1 Nat$) (?v2 Nat$)) (=> (forall ((?v3 Nat$) (?v4 Nat$)) (=> (fun_app$b (less$a ?v3) ?v4) (fun_app$b (less$a (fun_app$ ?v0 ?v3)) (fun_app$ ?v0 ?v4))) ) (fun_app$b (less_eq$a (fun_app$ (plus$ (fun_app$ ?v0 ?v1)) ?v2)) (fun_app$ ?v0 (fun_app$ (plus$ ?v1) ?v2)))) ))
(assert (forall ((?v0 Nat$) (?v1 Nat$) (?v2 Nat$)) (=> (and (fun_app$b (less_eq$a ?v0) ?v1) (fun_app$b (less_eq$a ?v0) ?v2)) (= (fun_app$b (less$a (fun_app$ (minus$a ?v1) ?v0)) (fun_app$ (minus$a ?v2) ?v0)) (fun_app$b (less$a ?v1) ?v2))) ))
(assert (forall ((?v0 Nat$) (?v1 Nat$) (?v2 Nat$)) (=> (and (fun_app$b (less$a ?v0) ?v1) (fun_app$b (less_eq$a ?v2) ?v0)) (fun_app$b (less$a (fun_app$ (minus$a ?v0) ?v2)) (fun_app$ (minus$a ?v1) ?v2))) ))
(assert (forall ((?v0 Nat$) (?v1 Nat$) (?v2 Nat$)) (=> (fun_app$b (less_eq$a ?v0) ?v1) (= (fun_app$ (minus$a ?v2) (fun_app$ (minus$a ?v1) ?v0)) (fun_app$ (minus$a (fun_app$ (plus$ ?v2) ?v0)) ?v1))) ))
(assert (forall ((?v0 Nat$) (?v1 Nat$) (?v2 Nat$)) (=> (fun_app$b (less_eq$a ?v0) ?v1) (fun_app$b (less_eq$a ?v2) (fun_app$ (minus$a (fun_app$ (plus$ ?v1) ?v2)) ?v0))) ))
(assert (forall ((?v0 Nat$) (?v1 Nat$) (?v2 Nat$)) (=> (fun_app$b (less_eq$a ?v0) ?v1) (= (fun_app$b (less_eq$a ?v2) (fun_app$ (minus$a ?v1) ?v0)) (fun_app$b (less_eq$a (fun_app$ (plus$ ?v2) ?v0)) ?v1))) ))
(assert (forall ((?v0 Nat$) (?v1 Nat$) (?v2 Nat$)) (=> (fun_app$b (less_eq$a ?v0) ?v1) (= (fun_app$ (minus$a (fun_app$ (plus$ ?v2) ?v1)) ?v0) (fun_app$ (plus$ ?v2) (fun_app$ (minus$a ?v1) ?v0)))) ))
(assert (forall ((?v0 Nat$) (?v1 Nat$) (?v2 Nat$)) (=> (fun_app$b (less_eq$a ?v0) ?v1) (= (fun_app$ (minus$a (fun_app$ (plus$ ?v1) ?v2)) ?v0) (fun_app$ (plus$ (fun_app$ (minus$a ?v1) ?v0)) ?v2))) ))
(assert (forall ((?v0 Nat$) (?v1 Nat$) (?v2 Nat$)) (=> (fun_app$b (less_eq$a ?v0) ?v1) (= (= (fun_app$ (minus$a ?v1) ?v0) ?v2) (= ?v1 (fun_app$ (plus$ ?v2) ?v0)))) ))
(assert (forall ((?v0 Nat$) (?v1 Nat$) (?v2 Nat$)) (= (fun_app$b (less_eq$a (fun_app$ (minus$a ?v0) ?v1)) ?v2) (fun_app$b (less_eq$a ?v0) (fun_app$ (plus$ ?v2) ?v1))) ))
(assert (forall ((?v0 Enat$)) (fun_app$a (less_eq$ ?v0) ?v0) ))
(assert (forall ((?v0 Nat$)) (fun_app$b (less_eq$a ?v0) ?v0) ))
(assert (forall ((?v0 Enat$) (?v1 Enat$)) (or (fun_app$a (less_eq$ ?v0) ?v1) (fun_app$a (less_eq$ ?v1) ?v0)) ))
(assert (forall ((?v0 Nat$) (?v1 Nat$)) (or (fun_app$b (less_eq$a ?v0) ?v1) (fun_app$b (less_eq$a ?v1) ?v0)) ))
(assert (forall ((?v0 Enat$) (?v1 Enat$)) (! (=> (fun_app$a (less_eq$ ?v0) ?v1) (= (fun_app$a (less_eq$ ?v1) ?v0) (= ?v1 ?v0))) :pattern ((fun_app$a (less_eq$ ?v1) ?v0)))))
(assert (forall ((?v0 Nat$) (?v1 Nat$)) (! (=> (fun_app$b (less_eq$a ?v0) ?v1) (= (fun_app$b (less_eq$a ?v1) ?v0) (= ?v1 ?v0))) :pattern ((fun_app$b (less_eq$a ?v1) ?v0)))))
(assert (forall ((?v0 Enat$) (?v1 Enat$) (?v2 Enat$)) (=> (and (fun_app$a (less_eq$ ?v0) ?v1) (fun_app$a (less_eq$ ?v1) ?v2)) (fun_app$a (less_eq$ ?v0) ?v2)) ))
(assert (forall ((?v0 Nat$) (?v1 Nat$) (?v2 Nat$)) (=> (and (fun_app$b (less_eq$a ?v0) ?v1) (fun_app$b (less_eq$a ?v1) ?v2)) (fun_app$b (less_eq$a ?v0) ?v2)) ))
(assert (forall ((?v0 Enat$) (?v1 Enat$) (?v2 Enat$)) (=> (and (fun_app$a (less_eq$ ?v0) ?v1) (fun_app$a (less_eq$ ?v1) ?v2)) (fun_app$a (less_eq$ ?v0) ?v2)) ))
(assert (forall ((?v0 Nat$) (?v1 Nat$) (?v2 Nat$)) (=> (and (fun_app$b (less_eq$a ?v0) ?v1) (fun_app$b (less_eq$a ?v1) ?v2)) (fun_app$b (less_eq$a ?v0) ?v2)) ))
(assert (forall ((?v0 Enat$) (?v1 Enat$) (?v2 Enat$)) (=> (and (fun_app$a (less_eq$ ?v0) ?v1) (fun_app$a (less_eq$ ?v2) ?v0)) (fun_app$a (less_eq$ ?v2) ?v1)) ))
(assert (forall ((?v0 Nat$) (?v1 Nat$) (?v2 Nat$)) (=> (and (fun_app$b (less_eq$a ?v0) ?v1) (fun_app$b (less_eq$a ?v2) ?v0)) (fun_app$b (less_eq$a ?v2) ?v1)) ))
(assert (forall ((?v0 Enat$) (?v1 Enat$)) (=> (and (fun_app$a (less_eq$ ?v0) ?v1) (fun_app$a (less_eq$ ?v1) ?v0)) (= ?v0 ?v1)) ))
(assert (forall ((?v0 Nat$) (?v1 Nat$)) (=> (and (fun_app$b (less_eq$a ?v0) ?v1) (fun_app$b (less_eq$a ?v1) ?v0)) (= ?v0 ?v1)) ))
(assert (forall ((?v0 Enat$) (?v1 Enat$)) (=> (and (fun_app$a (less_eq$ ?v0) ?v1) (fun_app$a (less_eq$ ?v1) ?v0)) (= ?v0 ?v1)) ))
(assert (forall ((?v0 Nat$) (?v1 Nat$)) (=> (and (fun_app$b (less_eq$a ?v0) ?v1) (fun_app$b (less_eq$a ?v1) ?v0)) (= ?v0 ?v1)) ))
(check-sat)
(exit)

